
  17    4
  10   10   10   10

   0   0   0   0   0   6 2 3 4 5 8 10 
   1  10  10  10  10   4 16 14 9 7 
  10  10  10  10  10   4 16 14 11 9 
   5  10  10  10  10   3 16 9 7 
   4  10  10  10  10   2 7 6 
   5  10  10  10  10   4 14 13 12 11 
   4  10  10  10  10   3 13 12 11 
  10  10  10  10  10   3 16 12 11 
   8  10  10  10  10   2 13 12 
   4  10  10  10  10   2 14 11 
   2  10  10  10  10   1 15 
   1  10  10  10  10   1 15 
   5  10  10  10  10   1 15 
  10  10  10  10  10   1 15 
   9  10  10  10  10   1 17
  10  10  10  10  10   1 17
   0   0   0   0   0   0 
